%warmup_sequence = [2, 16, 5, 1, 14, 6, 25, 23, 24, 13, 21, 20, 17, 15, 12, 19, 10, 7, 11, 8, 4, 3, 9, 22, 18];

%warmup_sequence =  [20, 7, 9, 14, 12, 4, 19, 2, 6, 21, 16, 5, 25, 17, 1, 24, 13, 15, 23, 18, 10, 22, 11, 3, 8];

% Best (cost = 19)
%warmup_sequence = [3, 23, 4, 20, 9, 22, 17, 18, 11, 8, 10, 2, 19, 7, 12, 16, 14, 24, 15, 13, 25, 5, 1, 21, 6];

warmup_sequence = [2, 10, 18, 11, 22, 3, 8, 7, 4, 9, 17, 20, 23, 13, 24, 1, 25, 6, 19, 15, 12, 5, 16, 14, 21];

% cost = 20
%warmup_sequence = [2, 16, 4, 15, 21, 5, 6, 25, 1, 12, 23, 20, 13, 24, 7, 3, 17, 10, 11, 8, 19, 22, 9, 18, 14];